db/inputs/1168297373037353063148987964421584.smt2
(set-logic QF_FP)
(declare-const x0 (_ FloatingPoint 8 24))
(declare-const x1 (_ FloatingPoint 8 24))
(declare-const x2 (_ FloatingPoint 8 24))
(declare-const x3 (_ FloatingPoint 8 24))
(declare-const x4 (_ FloatingPoint 8 24))
(declare-const x5 (_ FloatingPoint 8 24))
(declare-const x6 (_ FloatingPoint 8 24))
(declare-const x7 (_ FloatingPoint 8 24))
(declare-const x8 (_ FloatingPoint 8 24))
(declare-const x9 (_ FloatingPoint 8 24))
(declare-const x10 (_ FloatingPoint 8 24))
(declare-const x11 (_ FloatingPoint 8 24))
(declare-const x12 (_ FloatingPoint 8 24))
(declare-const x13 (_ FloatingPoint 8 24))
(declare-const x14 (_ FloatingPoint 8 24))
(declare-const x15 (_ FloatingPoint 8 24))
(declare-const x16 (_ FloatingPoint 8 24))
(declare-const x17 (_ FloatingPoint 8 24))
(declare-const x18 (_ FloatingPoint 8 24))
(assert (fp.gt (fp.mul RNE x12 x18) (fp.add RNE x7 x15)))
(assert (fp.leq (fp.sub RNE x5 x2) (fp.sub RNE x15 x5)))
(assert (fp.lt (fp.div RNE x1 x15) (fp.sub RNE x4 x4)))
(assert (fp.geq (fp.sub RNE x16 x2) (fp.div RNE x17 x15)))
(assert (fp.leq (fp.div RNE x8 x10) (fp.mul RNE x10 x7)))
(assert (fp.gt (fp.add RNE x14 x17) (fp.mul RNE x7 x6)))
(assert (fp.gt (fp.div RNE x5 x1) (fp.neg x9)))
(assert (fp.geq (fp.add RNE x1 x18) (fp.div RNE x15 x14)))
(assert (fp.leq (fp.neg x8) (fp.mul RNE x13 x6)))
(assert (fp.leq (fp.mul RNE x6 x7) (fp.neg x10)))
(assert (fp.lt (fp.sub RNE x18 x8) (fp.add RNE x6 x9)))
(assert (fp.geq (fp.sub RNE x0 x12) (fp.add RNE x3 x10)))
(check-sat)
