db/data/1168297373037353063148987964421584.z3.out
sat
-------------------
45.289225100
